
************************************************************
 TOWR - Trajectory Optimization for Walking Robots (v1.4)
                © Alexander W. Winkler
           https://github.com/ethz-adrl/towr
************************************************************

-0.0021593798358747612
0.5926355703120653
0.2
0
0
0.24
0
0
0
0.21
0.19
0.0
0.21
-0.19
0.0
-0.21
0.19
0.0
-0.21
-0.19
0.0
0.1
ee start pos x -> 0.21
ee start pos y -> 0.19
ee start pos z -> 0
ee start pos x -> 0.21
ee start pos y -> -0.19
ee start pos z -> 0
ee start pos x -> -0.21
ee start pos y -> 0.19
ee start pos z -> 0
ee start pos x -> -0.21
ee start pos y -> -0.19
ee start pos z -> 0
start pos x -> 0
start pos y -> 0
start pos z -> 0.24
goal pos x -> -0.00215938
goal pos y -> 0.592636
goal pos z -> 0.2
ee start pos x -> 0.21
ee start pos y -> 0.19
ee start pos z -> 0
ee start pos x -> 0.21
ee start pos y -> -0.19
ee start pos z -> 0
ee start pos x -> -0.21
ee start pos y -> 0.19
ee start pos z -> 0
ee start pos x -> -0.21
ee start pos y -> -0.19
ee start pos z -> 0
SOLVER RUN TIME : 15

******************************************************************************
This program contains Ipopt, a library for large-scale nonlinear optimization.
 Ipopt is released as open source code under the Eclipse Public License (EPL).
         For more information visit http://projects.coin-or.org/Ipopt
******************************************************************************

This is Ipopt version 3.11.9, running with linear solver mumps.
NOTE: Other linear solvers might be more efficient (see Ipopt documentation).

Number of nonzeros in equality constraint Jacobian...:    11557
Number of nonzeros in inequality constraint Jacobian.:    20605
Number of nonzeros in Lagrangian Hessian.............:        0

Total number of variables............................:     1005
                     variables with only lower bounds:        0
                variables with lower and upper bounds:        0
                     variables with only upper bounds:        0
Total number of equality constraints.................:      706
Total number of inequality constraints...............:     1024
        inequality constraints with only lower bounds:      112
   inequality constraints with lower and upper bounds:      816
        inequality constraints with only upper bounds:       96

iter    objective    inf_pr   inf_du lg(mu)  ||d||  lg(rg) alpha_du alpha_pr  ls
   0  0.0000000e+00 9.71e+00 1.00e+00   0.0 0.00e+00    -  0.00e+00 0.00e+00   0
   1  0.0000000e+00 8.44e+00 2.88e+00  -0.5 4.43e+00    -  7.62e-02 1.31e-01f  1
   2  0.0000000e+00 6.40e+00 1.26e+01  -0.7 4.25e+00    -  3.59e-01 2.41e-01h  1
   3  0.0000000e+00 6.07e+00 1.82e+01  -4.8 3.67e+00    -  1.97e-01 5.24e-02h  1
   4  0.0000000e+00 3.89e+00 2.87e+01  -0.6 4.68e+00    -  6.17e-01 3.59e-01f  1
   5  0.0000000e+00 2.51e+00 5.67e+01  -0.8 3.10e+00    -  9.91e-01 3.55e-01h  1
   6  0.0000000e+00 3.54e-02 2.70e+01  -1.0 2.09e+00    -  7.82e-01 1.00e+00h  1
   7  0.0000000e+00 3.95e-04 1.84e-01  -1.5 1.22e-01    -  9.98e-01 1.00e+00h  1
   8  0.0000000e+00 7.88e-08 4.69e-02  -3.6 2.14e-03    -  9.95e-01 1.00e+00h  1
   9  0.0000000e+00 1.72e-10 5.12e-05  -5.3 6.41e-05    -  1.00e+00 1.00e+00h  1

Number of Iterations....: 9

                                   (scaled)                 (unscaled)
Objective...............:   0.0000000000000000e+00    0.0000000000000000e+00
Dual infeasibility......:   5.1176387444090970e-05    5.1176387444090970e-05
Constraint violation....:   1.7156120968309096e-10    1.7156120968309096e-10
Complementarity.........:   5.6268381789784800e-06    5.6268381789784800e-06
Overall NLP error.......:   5.1176387444090970e-05    5.1176387444090970e-05


Number of objective function evaluations             = 10
Number of objective gradient evaluations             = 10
Number of equality constraint evaluations            = 10
Number of inequality constraint evaluations          = 10
Number of equality constraint Jacobian evaluations   = 10
Number of inequality constraint Jacobian evaluations = 10
Number of Lagrangian Hessian evaluations             = 0
Total CPU secs in IPOPT (w/o function evaluations)   =      0.347
Total CPU secs in NLP function evaluations           =      0.574

EXIT: Optimal Solution Found.
status -> 0

************************************************************
    IFOPT - Interface to Nonlinear Optimizers (v2.0)
                © Alexander W. Winkler
           https://github.com/ethz-adrl/ifopt
************************************************************
Legend:
c - number of variables, constraints or cost terms
i - indices of this set in overall problem
v - number of [violated variable- or constraint-bounds] or [cost term value]

                                   c             i             v 
variable-sets:
   base-lin                       306        0....305[0m           0[0m
   base-ang                       306      306....611[0m           0[0m
   ee-motion_0                     35      612....646[0m           0[0m
   ee-motion_1                     35      647....681[0m           0[0m
   ee-motion_2                     35      682....716[0m           0[0m
   ee-motion_3                     35      717....751[0m           0[0m
   ee-force_0                      72      752....823[0m           0[0m
   ee-force_1                      72      824....895[0m           0[0m
   ee-force_2                      72      896....967[0m           0[0m
   ee-force_3                      72      968...1039[0m           0[0m

constraint-sets:
   terrain-ee-motion_0             13        0.....12[0m           0[0m
   terrain-ee-motion_1             13       13.....25[0m           0[0m
   terrain-ee-motion_2             13       26.....38[0m           0[0m
   terrain-ee-motion_3             13       39.....51[0m           0[0m
   dynamic                        312       52....363[0m           0[0m
   splineacc-base-lin             147      364....510[0m           0[0m
   splineacc-base-ang             147      511....657[0m           0[0m
   rangeofmotion-0                192      658....849[0m           0[0m
   rangeofmotion-1                192      850...1041[0m           0[0m
   rangeofmotion-2                192     1042...1233[0m           0[0m
   rangeofmotion-3                192     1234...1425[0m           0[0m
   force-ee-force_0                60     1426...1485[0m           0[0m
   force-ee-force_1                60     1486...1545[0m           0[0m
   force-ee-force_2                60     1546...1605[0m           0[0m
   force-ee-force_3                60     1606...1665[0m           0[0m
   swing-ee-motion_0               16     1666...1681[0m           0[0m
   swing-ee-motion_1               16     1682...1697[0m           0[0m
   swing-ee-motion_2               16     1698...1713[0m           0[0m
   swing-ee-motion_3               16     1714...1729[0m           0[0m

cost-terms:


************************************************************
 TOWR - Trajectory Optimization for Walking Robots (v1.4)
                © Alexander W. Winkler
           https://github.com/ethz-adrl/towr
************************************************************

0.21352308384724283
0.8198102494860905
0.2
-0.0279567
0.387257
0.200452
0.0308783
-0.0965469
0.00071596
0.186227
0.535396
0
0.195331
0.258909
0
-0.202372
0.541798
0
-0.228421
0.22982
0
3.756
s_vel
0.0731066
0.1
-t
3.756
ee start pos x -> 0.186227
ee start pos y -> 0.535396
ee start pos z -> 0
ee start pos x -> 0.195331
ee start pos y -> 0.258909
ee start pos z -> 0
ee start pos x -> -0.202372
ee start pos y -> 0.541798
ee start pos z -> 0
ee start pos x -> -0.228421
ee start pos y -> 0.22982
ee start pos z -> 0
start pos x -> -0.0279567
start pos y -> 0.387257
start pos z -> 0.200452
goal pos x -> 0.213523
goal pos y -> 0.81981
goal pos z -> 0.2
ee start pos x -> 0.186227
ee start pos y -> 0.535396
ee start pos z -> 0
ee start pos x -> 0.195331
ee start pos y -> 0.258909
ee start pos z -> 0
ee start pos x -> -0.202372
ee start pos y -> 0.541798
ee start pos z -> 0
ee start pos x -> -0.228421
ee start pos y -> 0.22982
ee start pos z -> 0
SOLVER RUN TIME : 15

******************************************************************************
This program contains Ipopt, a library for large-scale nonlinear optimization.
 Ipopt is released as open source code under the Eclipse Public License (EPL).
         For more information visit http://projects.coin-or.org/Ipopt
******************************************************************************

This is Ipopt version 3.11.9, running with linear solver mumps.
NOTE: Other linear solvers might be more efficient (see Ipopt documentation).

Number of nonzeros in equality constraint Jacobian...:    11557
Number of nonzeros in inequality constraint Jacobian.:    20605
Number of nonzeros in Lagrangian Hessian.............:        0

Total number of variables............................:     1005
                     variables with only lower bounds:        0
                variables with lower and upper bounds:        0
                     variables with only upper bounds:        0
Total number of equality constraints.................:      706
Total number of inequality constraints...............:     1024
        inequality constraints with only lower bounds:      112
   inequality constraints with lower and upper bounds:      816
        inequality constraints with only upper bounds:       96

iter    objective    inf_pr   inf_du lg(mu)  ||d||  lg(rg) alpha_du alpha_pr  ls
   0  0.0000000e+00 9.71e+00 1.00e+00   0.0 0.00e+00    -  0.00e+00 0.00e+00   0
   1  0.0000000e+00 8.98e+00 6.58e+01  -0.1 5.29e+00    -  4.06e-01 7.53e-02f  1
   2  0.0000000e+00 6.00e+00 4.04e+02   0.3 6.37e+00    -  9.92e-01 3.32e-01f  1
   3  0.0000000e+00 9.25e-01 2.73e+02   0.7 6.60e+00    -  7.55e-01 8.46e-01f  1
   4  0.0000000e+00 1.25e-02 3.52e+01   0.4 1.26e+00    -  1.00e+00 1.00e+00f  1
   5  0.0000000e+00 3.14e-05 8.52e+00  -1.7 9.53e-02    -  9.73e-01 1.00e+00h  1
   6  0.0000000e+00 2.74e-06 1.45e-02  -2.8 3.66e-02    -  9.99e-01 1.00e+00h  1
   7  0.0000000e+00 6.30e-09 7.95e-04  -4.8 8.82e-04    -  9.96e-01 1.00e+00h  1

Number of Iterations....: 7

                                   (scaled)                 (unscaled)
Objective...............:   0.0000000000000000e+00    0.0000000000000000e+00
Dual infeasibility......:   7.9514136245593947e-04    7.9514136245593947e-04
Constraint violation....:   6.3034677338924539e-09    6.3034677338924539e-09
Complementarity.........:   2.3622528085844231e-05    2.3622528085844231e-05
Overall NLP error.......:   7.9514136245593947e-04    7.9514136245593947e-04


Number of objective function evaluations             = 8
Number of objective gradient evaluations             = 8
Number of equality constraint evaluations            = 8
Number of inequality constraint evaluations          = 8
Number of equality constraint Jacobian evaluations   = 8
Number of inequality constraint Jacobian evaluations = 8
Number of Lagrangian Hessian evaluations             = 0
Total CPU secs in IPOPT (w/o function evaluations)   =      0.327
Total CPU secs in NLP function evaluations           =      0.470

EXIT: Optimal Solution Found.
status -> 0

************************************************************
    IFOPT - Interface to Nonlinear Optimizers (v2.0)
                © Alexander W. Winkler
           https://github.com/ethz-adrl/ifopt
************************************************************
Legend:
c - number of variables, constraints or cost terms
i - indices of this set in overall problem
v - number of [violated variable- or constraint-bounds] or [cost term value]

                                   c             i             v 
variable-sets:
   base-lin                       306        0....305[0m           0[0m
   base-ang                       306      306....611[0m           0[0m
   ee-motion_0                     35      612....646[0m           0[0m
   ee-motion_1                     35      647....681[0m           0[0m
   ee-motion_2                     35      682....716[0m           0[0m
   ee-motion_3                     35      717....751[0m           0[0m
   ee-force_0                      72      752....823[0m           0[0m
   ee-force_1                      72      824....895[0m           0[0m
   ee-force_2                      72      896....967[0m           0[0m
   ee-force_3                      72      968...1039[0m           0[0m

constraint-sets:
   terrain-ee-motion_0             13        0.....12[0m           0[0m
   terrain-ee-motion_1             13       13.....25[0m           0[0m
   terrain-ee-motion_2             13       26.....38[0m           0[0m
   terrain-ee-motion_3             13       39.....51[0m           0[0m
   dynamic                        312       52....363[0m           0[0m
   splineacc-base-lin             147      364....510[0m           0[0m
   splineacc-base-ang             147      511....657[0m           0[0m
   rangeofmotion-0                192      658....849[0m           0[0m
   rangeofmotion-1                192      850...1041[0m           0[0m
   rangeofmotion-2                192     1042...1233[0m           0[0m
   rangeofmotion-3                192     1234...1425[0m           0[0m
   force-ee-force_0                60     1426...1485[0m           0[0m
   force-ee-force_1                60     1486...1545[0m           0[0m
   force-ee-force_2                60     1546...1605[0m           0[0m
   force-ee-force_3                60     1606...1665[0m           0[0m
   swing-ee-motion_0               16     1666...1681[0m           0[0m
   swing-ee-motion_1               16     1682...1697[0m           0[0m
   swing-ee-motion_2               16     1698...1713[0m           0[0m
   swing-ee-motion_3               16     1714...1729[0m           0[0m

cost-terms:


************************************************************
 TOWR - Trajectory Optimization for Walking Robots (v1.4)
                © Alexander W. Winkler
           https://github.com/ethz-adrl/towr
************************************************************

0.4227378500252445
0.9059516737842793
0.2
0.07256
0.61
0.232138
-0.0107819
0.0123299
0.136793
0.262365
0.786774
0
0.310738
0.450278
0
-0.162269
0.735698
0
-0.110855
0.399592
0
6.285
s_vel
0.0796987
0.1
-t
6.285
ee start pos x -> 0.262365
ee start pos y -> 0.786774
ee start pos z -> 0
ee start pos x -> 0.310738
ee start pos y -> 0.450278
ee start pos z -> 0
ee start pos x -> -0.162269
ee start pos y -> 0.735698
ee start pos z -> 0
ee start pos x -> -0.110855
ee start pos y -> 0.399592
ee start pos z -> 0
start pos x -> 0.07256
start pos y -> 0.61
start pos z -> 0.232138
goal pos x -> 0.422738
goal pos y -> 0.905952
goal pos z -> 0.2
ee start pos x -> 0.262365
ee start pos y -> 0.786774
ee start pos z -> 0
ee start pos x -> 0.310738
ee start pos y -> 0.450278
ee start pos z -> 0
ee start pos x -> -0.162269
ee start pos y -> 0.735698
ee start pos z -> 0
ee start pos x -> -0.110855
ee start pos y -> 0.399592
ee start pos z -> 0
SOLVER RUN TIME : 15

******************************************************************************
This program contains Ipopt, a library for large-scale nonlinear optimization.
 Ipopt is released as open source code under the Eclipse Public License (EPL).
         For more information visit http://projects.coin-or.org/Ipopt
******************************************************************************

This is Ipopt version 3.11.9, running with linear solver mumps.
NOTE: Other linear solvers might be more efficient (see Ipopt documentation).

Number of nonzeros in equality constraint Jacobian...:    11557
Number of nonzeros in inequality constraint Jacobian.:    20605
Number of nonzeros in Lagrangian Hessian.............:        0

Total number of variables............................:     1005
                     variables with only lower bounds:        0
                variables with lower and upper bounds:        0
                     variables with only upper bounds:        0
Total number of equality constraints.................:      706
Total number of inequality constraints...............:     1024
        inequality constraints with only lower bounds:      112
   inequality constraints with lower and upper bounds:      816
        inequality constraints with only upper bounds:       96

iter    objective    inf_pr   inf_du lg(mu)  ||d||  lg(rg) alpha_du alpha_pr  ls
   0  0.0000000e+00 9.71e+00 1.00e+00   0.0 0.00e+00    -  0.00e+00 0.00e+00   0
   1  0.0000000e+00 9.29e+00 1.01e+02   0.5 1.00e+01    -  6.28e-01 4.29e-02f  1
   2  0.0000000e+00 4.56e+00 1.36e+02   0.8 8.00e+00    -  9.94e-01 5.10e-01f  1
   3  0.0000000e+00 1.45e-01 2.22e+02   0.7 4.26e+00    -  8.94e-01 1.00e+00f  1
   4  0.0000000e+00 2.01e-03 5.72e+00   0.3 7.08e-01    -  9.86e-01 1.00e+00f  1
   5  0.0000000e+00 2.25e-06 1.20e+00  -5.7 1.61e-02    -  9.89e-01 1.00e+00h  1
   6  0.0000000e+00 5.45e-11 1.19e-02  -7.6 1.34e-03    -  9.90e-01 1.00e+00h  1
   7  0.0000000e+00 2.29e-13 1.19e-04  -9.6 2.35e-04    -  9.90e-01 1.00e+00h  1

Number of Iterations....: 7

                                   (scaled)                 (unscaled)
Objective...............:   0.0000000000000000e+00    0.0000000000000000e+00
Dual infeasibility......:   1.1912651992931763e-04    1.1912651992931763e-04
Constraint violation....:   2.2934432131194171e-13    2.2934432131194171e-13
Complementarity.........:   2.9320497058476469e-06    2.9320497058476469e-06
Overall NLP error.......:   1.1912651992931763e-04    1.1912651992931763e-04


Number of objective function evaluations             = 8
Number of objective gradient evaluations             = 8
Number of equality constraint evaluations            = 8
Number of inequality constraint evaluations          = 8
Number of equality constraint Jacobian evaluations   = 8
Number of inequality constraint Jacobian evaluations = 8
Number of Lagrangian Hessian evaluations             = 0
Total CPU secs in IPOPT (w/o function evaluations)   =      0.357
Total CPU secs in NLP function evaluations           =      0.530

EXIT: Optimal Solution Found.
status -> 0

************************************************************
    IFOPT - Interface to Nonlinear Optimizers (v2.0)
                © Alexander W. Winkler
           https://github.com/ethz-adrl/ifopt
************************************************************
Legend:
c - number of variables, constraints or cost terms
i - indices of this set in overall problem
v - number of [violated variable- or constraint-bounds] or [cost term value]

                                   c             i             v 
variable-sets:
   base-lin                       306        0....305[0m           0[0m
   base-ang                       306      306....611[0m           0[0m
   ee-motion_0                     35      612....646[0m           0[0m
   ee-motion_1                     35      647....681[0m           0[0m
   ee-motion_2                     35      682....716[0m           0[0m
   ee-motion_3                     35      717....751[0m           0[0m
   ee-force_0                      72      752....823[0m           0[0m
   ee-force_1                      72      824....895[0m           0[0m
   ee-force_2                      72      896....967[0m           0[0m
   ee-force_3                      72      968...1039[0m           0[0m

constraint-sets:
   terrain-ee-motion_0             13        0.....12[0m           0[0m
   terrain-ee-motion_1             13       13.....25[0m           0[0m
   terrain-ee-motion_2             13       26.....38[0m           0[0m
   terrain-ee-motion_3             13       39.....51[0m           0[0m
   dynamic                        312       52....363[0m           0[0m
   splineacc-base-lin             147      364....510[0m           0[0m
   splineacc-base-ang             147      511....657[0m           0[0m
   rangeofmotion-0                192      658....849[0m           0[0m
   rangeofmotion-1                192      850...1041[0m           0[0m
   rangeofmotion-2                192     1042...1233[0m           0[0m
   rangeofmotion-3                192     1234...1425[0m           0[0m
   force-ee-force_0                60     1426...1485[0m           0[0m
   force-ee-force_1                60     1486...1545[0m           0[0m
   force-ee-force_2                60     1546...1605[0m           0[0m
   force-ee-force_3                60     1606...1665[0m           0[0m
   swing-ee-motion_0               16     1666...1681[0m           0[0m
   swing-ee-motion_1               16     1682...1697[0m           0[0m
   swing-ee-motion_2               16     1698...1713[0m           0[0m
   swing-ee-motion_3               16     1714...1729[0m           0[0m

cost-terms:


************************************************************
 TOWR - Trajectory Optimization for Walking Robots (v1.4)
                © Alexander W. Winkler
           https://github.com/ethz-adrl/towr
************************************************************

0.7238228695785716
0.9003409399452382
0.2
0.215824
0.758284
0.234604
-0.0114384
0.0115501
0.140269
0.403405
0.939531
0
0.469699
0.589014
0
-0.0317328
0.889961
0
0.0382869
0.541545
0
8.809000000000001
s_vel
0.107485
0.1
-t
8.809000000000001
ee start pos x -> 0.403405
ee start pos y -> 0.939531
ee start pos z -> 0
ee start pos x -> 0.469699
ee start pos y -> 0.589014
ee start pos z -> 0
ee start pos x -> -0.0317328
ee start pos y -> 0.889961
ee start pos z -> 0
ee start pos x -> 0.0382869
ee start pos y -> 0.541545
ee start pos z -> 0
start pos x -> 0.215824
start pos y -> 0.758284
start pos z -> 0.234604
goal pos x -> 0.723823
goal pos y -> 0.900341
goal pos z -> 0.2
ee start pos x -> 0.403405
ee start pos y -> 0.939531
ee start pos z -> 0
ee start pos x -> 0.469699
ee start pos y -> 0.589014
ee start pos z -> 0
ee start pos x -> -0.0317328
ee start pos y -> 0.889961
ee start pos z -> 0
ee start pos x -> 0.0382869
ee start pos y -> 0.541545
ee start pos z -> 0
SOLVER RUN TIME : 15

******************************************************************************
This program contains Ipopt, a library for large-scale nonlinear optimization.
 Ipopt is released as open source code under the Eclipse Public License (EPL).
         For more information visit http://projects.coin-or.org/Ipopt
******************************************************************************

This is Ipopt version 3.11.9, running with linear solver mumps.
NOTE: Other linear solvers might be more efficient (see Ipopt documentation).

Number of nonzeros in equality constraint Jacobian...:    11557
Number of nonzeros in inequality constraint Jacobian.:    20605
Number of nonzeros in Lagrangian Hessian.............:        0

Total number of variables............................:     1005
                     variables with only lower bounds:        0
                variables with lower and upper bounds:        0
                     variables with only upper bounds:        0
Total number of equality constraints.................:      706
Total number of inequality constraints...............:     1024
        inequality constraints with only lower bounds:      112
   inequality constraints with lower and upper bounds:      816
        inequality constraints with only upper bounds:       96

iter    objective    inf_pr   inf_du lg(mu)  ||d||  lg(rg) alpha_du alpha_pr  ls
   0  0.0000000e+00 9.71e+00 1.00e+00   0.0 0.00e+00    -  0.00e+00 0.00e+00   0
   1  0.0000000e+00 9.05e+00 5.18e+01   0.2 5.21e+00    -  4.32e-01 6.76e-02f  1
   2  0.0000000e+00 5.28e+00 5.92e+01   0.6 6.92e+00    -  9.95e-01 4.17e-01f  1
   3  0.0000000e+00 2.68e-01 1.74e+02   0.5 4.89e+00    -  6.94e-01 1.00e+00f  1
   4  0.0000000e+00 2.94e-03 7.90e+00   0.2 8.12e-01    -  9.96e-01 1.00e+00f  1
   5  0.0000000e+00 2.94e-06 9.70e-01  -1.9 8.42e-02    -  9.91e-01 1.00e+00h  1
   6  0.0000000e+00 3.00e-06 1.71e-04  -3.4 3.42e-02    -  1.00e+00 1.00e+00h  1
   7  0.0000000e+00 4.46e-11 8.57e-06  -9.4 4.38e-06    -  1.00e+00 1.00e+00h  1

Number of Iterations....: 7

                                   (scaled)                 (unscaled)
Objective...............:   0.0000000000000000e+00    0.0000000000000000e+00
Dual infeasibility......:   8.5744399572809215e-06    8.5744399572809215e-06
Constraint violation....:   1.8571542847949455e-11    4.4614978378376684e-11
Complementarity.........:   2.3714899219048919e-07    2.3714899219048919e-07
Overall NLP error.......:   8.5744399572809215e-06    8.5744399572809215e-06


Number of objective function evaluations             = 8
Number of objective gradient evaluations             = 8
Number of equality constraint evaluations            = 8
Number of inequality constraint evaluations          = 8
Number of equality constraint Jacobian evaluations   = 8
Number of inequality constraint Jacobian evaluations = 8
Number of Lagrangian Hessian evaluations             = 0
Total CPU secs in IPOPT (w/o function evaluations)   =      0.337
Total CPU secs in NLP function evaluations           =      0.470

EXIT: Optimal Solution Found.
status -> 0

************************************************************
    IFOPT - Interface to Nonlinear Optimizers (v2.0)
                © Alexander W. Winkler
           https://github.com/ethz-adrl/ifopt
************************************************************
Legend:
c - number of variables, constraints or cost terms
i - indices of this set in overall problem
v - number of [violated variable- or constraint-bounds] or [cost term value]

                                   c             i             v 
variable-sets:
   base-lin                       306        0....305[0m           0[0m
   base-ang                       306      306....611[0m           0[0m
   ee-motion_0                     35      612....646[0m           0[0m
   ee-motion_1                     35      647....681[0m           0[0m
   ee-motion_2                     35      682....716[0m           0[0m
   ee-motion_3                     35      717....751[0m           0[0m
   ee-force_0                      72      752....823[0m           0[0m
   ee-force_1                      72      824....895[0m           0[0m
   ee-force_2                      72      896....967[0m           0[0m
   ee-force_3                      72      968...1039[0m           0[0m

constraint-sets:
   terrain-ee-motion_0             13        0.....12[0m           0[0m
   terrain-ee-motion_1             13       13.....25[0m           0[0m
   terrain-ee-motion_2             13       26.....38[0m           0[0m
   terrain-ee-motion_3             13       39.....51[0m           0[0m
   dynamic                        312       52....363[0m           0[0m
   splineacc-base-lin             147      364....510[0m           0[0m
   splineacc-base-ang             147      511....657[0m           0[0m
   rangeofmotion-0                192      658....849[0m           0[0m
   rangeofmotion-1                192      850...1041[0m           0[0m
   rangeofmotion-2                192     1042...1233[0m           0[0m
   rangeofmotion-3                192     1234...1425[0m           0[0m
   force-ee-force_0                60     1426...1485[0m           0[0m
   force-ee-force_1                60     1486...1545[0m           0[0m
   force-ee-force_2                60     1546...1605[0m           0[0m
   force-ee-force_3                60     1606...1665[0m           0[0m
   swing-ee-motion_0               16     1666...1681[0m           0[0m
   swing-ee-motion_1               16     1682...1697[0m           0[0m
   swing-ee-motion_2               16     1698...1713[0m           0[0m
   swing-ee-motion_3               16     1714...1729[0m           0[0m

cost-terms:


************************************************************
 TOWR - Trajectory Optimization for Walking Robots (v1.4)
                © Alexander W. Winkler
           https://github.com/ethz-adrl/towr
************************************************************

1.0197655637501961
0.8998725314878993
0.2
0.430498
0.840038
0.235174
-0.00182241
0.0138079
0.0950248
0.624055
1.01583
0
0.690319
0.64692
0
0.177018
0.990096
0
0.249727
0.624611
0
11.331
s_vel
0.117042
0.1
-t
11.331
ee start pos x -> 0.624055
ee start pos y -> 1.01583
ee start pos z -> 0
ee start pos x -> 0.690319
ee start pos y -> 0.64692
ee start pos z -> 0
ee start pos x -> 0.177018
ee start pos y -> 0.990096
ee start pos z -> 0
ee start pos x -> 0.249727
ee start pos y -> 0.624611
ee start pos z -> 0
start pos x -> 0.430498
start pos y -> 0.840038
start pos z -> 0.235174
goal pos x -> 1.01977
goal pos y -> 0.899873
goal pos z -> 0.2
ee start pos x -> 0.624055
ee start pos y -> 1.01583
ee start pos z -> 0
ee start pos x -> 0.690319
ee start pos y -> 0.64692
ee start pos z -> 0
ee start pos x -> 0.177018
ee start pos y -> 0.990096
ee start pos z -> 0
ee start pos x -> 0.249727
ee start pos y -> 0.624611
ee start pos z -> 0
SOLVER RUN TIME : 15

******************************************************************************
This program contains Ipopt, a library for large-scale nonlinear optimization.
 Ipopt is released as open source code under the Eclipse Public License (EPL).
         For more information visit http://projects.coin-or.org/Ipopt
******************************************************************************

This is Ipopt version 3.11.9, running with linear solver mumps.
NOTE: Other linear solvers might be more efficient (see Ipopt documentation).

Number of nonzeros in equality constraint Jacobian...:    11557
Number of nonzeros in inequality constraint Jacobian.:    20605
Number of nonzeros in Lagrangian Hessian.............:        0

Total number of variables............................:     1005
                     variables with only lower bounds:        0
                variables with lower and upper bounds:        0
                     variables with only upper bounds:        0
Total number of equality constraints.................:      706
Total number of inequality constraints...............:     1024
        inequality constraints with only lower bounds:      112
   inequality constraints with lower and upper bounds:      816
        inequality constraints with only upper bounds:       96

iter    objective    inf_pr   inf_du lg(mu)  ||d||  lg(rg) alpha_du alpha_pr  ls
   0  0.0000000e+00 9.71e+00 1.00e+00   0.0 0.00e+00    -  0.00e+00 0.00e+00   0
   1  0.0000000e+00 8.90e+00 5.14e+01   0.1 4.94e+00    -  4.08e-01 8.29e-02f  1
   2  0.0000000e+00 4.95e+00 6.93e+01   0.4 6.54e+00    -  9.94e-01 4.44e-01f  1
   3  0.0000000e+00 2.48e-01 1.43e+02   0.4 4.88e+00    -  7.60e-01 1.00e+00f  1
   4  0.0000000e+00 2.10e-03 4.47e+00   0.0 6.09e-01    -  9.99e-01 1.00e+00f  1
   5  0.0000000e+00 1.04e-06 8.61e-01  -6.0 1.72e-02    -  9.87e-01 1.00e+00h  1
   6  0.0000000e+00 1.59e-06 1.73e-03  -3.7 1.76e-02    -  9.98e-01 1.00e+00h  1
   7  0.0000000e+00 1.86e-11 1.83e-05  -9.7 1.97e-06    -  9.98e-01 1.00e+00h  1

Number of Iterations....: 7

                                   (scaled)                 (unscaled)
Objective...............:   0.0000000000000000e+00    0.0000000000000000e+00
Dual infeasibility......:   1.8263336816605234e-05    1.8263336816605234e-05
Constraint violation....:   8.5494970041219938e-12    1.8630430531629827e-11
Complementarity.........:   5.0050936701044996e-07    5.0050936701044996e-07
Overall NLP error.......:   1.8263336816605234e-05    1.8263336816605234e-05


Number of objective function evaluations             = 8
Number of objective gradient evaluations             = 8
Number of equality constraint evaluations            = 8
Number of inequality constraint evaluations          = 8
Number of equality constraint Jacobian evaluations   = 8
Number of inequality constraint Jacobian evaluations = 8
Number of Lagrangian Hessian evaluations             = 0
Total CPU secs in IPOPT (w/o function evaluations)   =      0.343
Total CPU secs in NLP function evaluations           =      0.518

EXIT: Optimal Solution Found.
status -> 0

************************************************************
    IFOPT - Interface to Nonlinear Optimizers (v2.0)
                © Alexander W. Winkler
           https://github.com/ethz-adrl/ifopt
************************************************************
Legend:
c - number of variables, constraints or cost terms
i - indices of this set in overall problem
v - number of [violated variable- or constraint-bounds] or [cost term value]

                                   c             i             v 
variable-sets:
   base-lin                       306        0....305[0m           0[0m
   base-ang                       306      306....611[0m           0[0m
   ee-motion_0                     35      612....646[0m           0[0m
   ee-motion_1                     35      647....681[0m           0[0m
   ee-motion_2                     35      682....716[0m           0[0m
   ee-motion_3                     35      717....751[0m           0[0m
   ee-force_0                      72      752....823[0m           0[0m
   ee-force_1                      72      824....895[0m           0[0m
   ee-force_2                      72      896....967[0m           0[0m
   ee-force_3                      72      968...1039[0m           0[0m

constraint-sets:
   terrain-ee-motion_0             13        0.....12[0m           0[0m
   terrain-ee-motion_1             13       13.....25[0m           0[0m
   terrain-ee-motion_2             13       26.....38[0m           0[0m
   terrain-ee-motion_3             13       39.....51[0m           0[0m
   dynamic                        312       52....363[0m           0[0m
   splineacc-base-lin             147      364....510[0m           0[0m
   splineacc-base-ang             147      511....657[0m           0[0m
   rangeofmotion-0                192      658....849[0m           0[0m
   rangeofmotion-1                192      850...1041[0m           0[0m
   rangeofmotion-2                192     1042...1233[0m           0[0m
   rangeofmotion-3                192     1234...1425[0m           0[0m
   force-ee-force_0                60     1426...1485[0m           0[0m
   force-ee-force_1                60     1486...1545[0m           0[0m
   force-ee-force_2                60     1546...1605[0m           0[0m
   force-ee-force_3                60     1606...1665[0m           0[0m
   swing-ee-motion_0               16     1666...1681[0m           0[0m
   swing-ee-motion_1               16     1682...1697[0m           0[0m
   swing-ee-motion_2               16     1698...1713[0m           0[0m
   swing-ee-motion_3               16     1714...1729[0m           0[0m

cost-terms:

